0
79
72
6
42
2
82
26
27
59
67
87
57
48
45
28
94
14
36
73
81
83
8
74
21
15
10
68
39
40
77
11
65
95
96
62
89
1
3
99
18
76
46
34
52
35
50
54
13
97
43
44
51
19
61
98
17
85
32
90
78
9
53
31
38
5
12
22
63
66
16
55
71
41
93
30
70
4
47
58
33
7
23
88
56
84
91
86
20
25
92
64
69
80
75
29
49
60
37
24
